0 0 5
0 0 3
1 0 6
0 0 7
0 0 8
0 0 11
0 0 14
0 0 16
0 1 6
0 1 9
0 1 4
0 2 6
5 2 7
0 2 3
0 2 5
0 3 6
0 2 12
0 3 11
0 3 13
0 3 18
0 3 16
0 4 14
0 4 20
0 5 9
0 5 12
0 5 6
0 4 16
4 6 0
0 6 14
0 6 16
4 7 2
0 7 10
0 7 12
0 7 20
0 8 9
0 8 12
0 8 13
0 9 14
0 9 16
0 9 20
0 10 0
0 10 6
0 10 20
0 11 6
0 11 12
0 12 16
0 12 17
0 12 19
0 13 20
0 5 15
0 14 15
0 15 19
0 15 20
0 17 18
